projet_m2_wvcp/projet_m2_wvcp/original_wvcp_dzn/p40.clq.dzn
cliques=[{1,3,0,4,5,2},{1,3,0,4,5,2},{1,3,0,4,5,2},{1,3,0,4,5,2},{1,3,0,4,5,2},{1,3,0,4,5,2},{45,59,6,14,34,71,18,81},{1,28,60,72,84,7,37,21,48},{42,8,29,61,49,22},{8,6,10,7,12,13,9,11},{8,6,10,7,12,13,9,11},{3,25,74,64,68,11},{53,4,39,43,12,69,75,32},{8,6,10,7,12,13,9,11},{45,59,6,14,34,71,18,81},{15,14,17,16},{15,14,17,16},{15,14,17,16},{45,59,6,14,34,71,18,81},{77,41,46,19,36,82,26},{0,55,27,67,83,47,78,20},{1,28,60,72,84,7,37,21,48},{42,8,29,61,49,22},{25,24,19,23,18,21,22,20},{52,24,2,56,62,9},{3,25,74,64,68,11},{29,27,28,30,31,33,32,26},{0,55,27,67,83,47,78,20},{1,28,60,72,84,7,37,21,48},{29,27,28,30,31,33,32,26},{29,27,28,30,31,33,32,26},{29,27,28,30,31,33,32,26},{53,4,39,43,12,69,75,32},{29,27,28,30,31,33,32,26},{45,59,6,14,34,71,18,81},{39,35,38,37,34,36},{77,41,46,19,36,82,26},{1,28,60,72,84,7,37,21,48},{10,57,63,31,38,73},{53,4,39,43,12,69,75,32},{42,40,41,43,44},{42,40,41,43,44},{42,8,29,61,49,22},{53,4,39,43,12,69,75,32},{42,40,41,43,44},{53,45,51,52,46,54,49,50,47,48},{53,45,51,52,46,54,49,50,47,48},{53,45,51,52,46,54,49,50,47,48},{1,28,60,72,84,7,37,21,48},{53,45,51,52,46,54,49,50,47,48},{53,45,51,52,46,54,49,50,47,48},{53,45,51,52,46,54,49,50,47,48},{53,45,51,52,46,54,49,50,47,48},{53,45,51,52,46,54,49,50,47,48},{53,45,51,52,46,54,49,50,47,48},{0,55,27,67,83,47,78,20},{55,57,56,58},{55,57,56,58},{55,57,56,58},{45,59,6,14,34,71,18,81},{1,28,60,72,84,7,37,21,48},{42,8,29,61,49,22},{59,60,61,63,62,64,65},{59,60,61,63,62,64,65},{3,25,74,64,68,11},{59,60,61,63,62,64,65},{40,35,66},{0,55,27,67,83,47,78,20},{3,25,74,64,68,11},{53,4,39,43,12,69,75,32},{70,16,58,33,79},{45,59,6,14,34,71,18,81},{1,28,60,72,84,7,37,21,48},{10,57,63,31,38,73},{3,25,74,64,68,11},{53,4,39,43,12,69,75,32},{5,76,17,54,85,13,80,44,65},{77,41,46,19,36,82,26},{0,55,27,67,83,47,78,20},{77,79,80,78},{5,76,17,54,85,13,80,44,65},{45,59,6,14,34,71,18,81},{77,41,46,19,36,82,26},{0,55,27,67,83,47,78,20},{1,28,60,72,84,7,37,21,48},{5,76,17,54,85,13,80,44,65}];
nr_cliques=86;
