projet_m2_wvcp/projet_m2_wvcp/original_wvcp_dzn/p40.dzn
name="p40";
nr_vertices=86;
nr_edges=497;
neighborhoods=[{1,2,3,4,5,20,27,47,55,67,78,83},{0,2,3,4,5,7,21,28,37,48,60,72,84},{0,1,3,4,5,9,24,52,56,62},{0,1,2,4,5,11,25,64,68,74},{0,1,2,3,5,12,32,39,43,53,69,75},{0,1,2,3,4,13,17,44,54,65,76,80,85},{7,8,9,10,11,12,13,14,18,34,45,59,71,81},{1,6,8,9,10,11,12,13,21,28,37,48,60,72,84},{6,7,9,10,11,12,13,22,29,42,49,61},{2,6,7,8,10,11,12,13,24,52,56,62},{6,7,8,9,11,12,13,31,38,57,63,73},{3,6,7,8,9,10,12,13,25,64,68,74},{4,6,7,8,9,10,11,13,32,39,43,53,69,75},{5,6,7,8,9,10,11,12,17,44,54,65,76,80,85},{6,15,16,17,18,34,45,59,71,81},{14,16,17,30,50},{14,15,17,33,58,70,79},{5,13,14,15,16,44,54,65,76,80,85},{6,14,19,20,21,22,23,24,25,34,45,59,71,81},{18,20,21,22,23,24,25,26,36,41,46,77,82},{0,18,19,21,22,23,24,25,27,47,55,67,78,83},{1,7,18,19,20,22,23,24,25,28,37,48,60,72,84},{8,18,19,20,21,23,24,25,29,42,49,61},{18,19,20,21,22,24,25,51},{2,9,18,19,20,21,22,23,25,52,56,62},{3,11,18,19,20,21,22,23,24,64,68,74},{19,27,28,29,30,31,32,33,36,41,46,77,82},{0,20,26,28,29,30,31,32,33,47,55,67,78,83},{1,7,21,26,27,29,30,31,32,33,37,48,60,72,84},{8,22,26,27,28,30,31,32,33,42,49,61},{15,26,27,28,29,31,32,33,50},{10,26,27,28,29,30,32,33,38,57,63,73},{4,12,26,27,28,29,30,31,33,39,43,53,69,75},{16,26,27,28,29,30,31,32,58,70,79},{6,14,18,35,36,37,38,39,45,59,71,81},{34,36,37,38,39,40,66},{19,26,34,35,37,38,39,41,46,77,82},{1,7,21,28,34,35,36,38,39,48,60,72,84},{10,31,34,35,36,37,39,57,63,73},{4,12,32,34,35,36,37,38,43,53,69,75},{35,41,42,43,44,66},{19,26,36,40,42,43,44,46,77,82},{8,22,29,40,41,43,44,49,61},{4,12,32,39,40,41,42,44,53,69,75},{5,13,17,40,41,42,43,54,65,76,80,85},{6,14,18,34,46,47,48,49,50,51,52,53,54,59,71,81},{19,26,36,41,45,47,48,49,50,51,52,53,54,77,82},{0,20,27,45,46,48,49,50,51,52,53,54,55,67,78,83},{1,7,21,28,37,45,46,47,49,50,51,52,53,54,60,72,84},{8,22,29,42,45,46,47,48,50,51,52,53,54,61},{15,30,45,46,47,48,49,51,52,53,54},{23,45,46,47,48,49,50,52,53,54},{2,9,24,45,46,47,48,49,50,51,53,54,56,62},{4,12,32,39,43,45,46,47,48,49,50,51,52,54,69,75},{5,13,17,44,45,46,47,48,49,50,51,52,53,65,76,80,85},{0,20,27,47,56,57,58,67,78,83},{2,9,24,52,55,57,58,62},{10,31,38,55,56,58,63,73},{16,33,55,56,57,70,79},{6,14,18,34,45,60,61,62,63,64,65,71,81},{1,7,21,28,37,48,59,61,62,63,64,65,72,84},{8,22,29,42,49,59,60,62,63,64,65},{2,9,24,52,56,59,60,61,63,64,65},{10,31,38,57,59,60,61,62,64,65,73},{3,11,25,59,60,61,62,63,65,68,74},{5,13,17,44,54,59,60,61,62,63,64,76,80,85},{35,40,67,68,69,70},{0,20,27,47,55,66,68,69,70,78,83},{3,11,25,64,66,67,69,70,74},{4,12,32,39,43,53,66,67,68,70,75},{16,33,58,66,67,68,69,79},{6,14,18,34,45,59,72,73,74,75,76,81},{1,7,21,28,37,48,60,71,73,74,75,76,84},{10,31,38,57,63,71,72,74,75,76},{3,11,25,64,68,71,72,73,75,76},{4,12,32,39,43,53,69,71,72,73,74,76},{5,13,17,44,54,65,71,72,73,74,75,80,85},{19,26,36,41,46,78,79,80,82},{0,20,27,47,55,67,77,79,80,83},{16,33,58,70,77,78,80},{5,13,17,44,54,65,76,77,78,79,85},{6,14,18,34,45,59,71,82,83,84,85},{19,26,36,41,46,77,81,83,84,85},{0,20,27,47,55,67,78,81,82,84,85},{1,7,21,28,37,48,60,72,81,82,83,85},{5,13,17,44,54,65,76,80,81,82,83,84}];
weights=[743,1421,214,1120,625,328,461,180,506,80,335,20,130,116,328,666,220,314,132,170,43,127,71,166,226,290,6,438,424,506,266,215,118,200,175,235,128,178,215,244,340,252,544,244,108,568,248,105,95,157,155,423,380,1110,180,738,214,335,208,568,410,250,158,224,120,10,86,170,120,130,220,171,410,120,228,125,314,520,100,122,116,132,128,140,295,128];
